Route #1: 30 37 2 36 49 50 43 23 45
Route #2: 33 20 6 35 51
Route #3: 25 21 52 13 34 14
Route #4: 27 18 38 40 26 10 29 44
Route #5: 4 28 22 12 7 41 24 11 9 47
Route #6: 17 16 32 15 19 48 42
Route #7: 3 5 39 1 46 8 31
cost 1151.610107421875